NumGames = 2;
NumReferees = 8;
NumFields = 1;
game_id = [3801, 3802];
game_start = [600, 600];
game_end = [720, 720];
difficulty = [1, 1];
game_field = [1, 1];
referee_id = [3260, 3263, 3276, 3367, 3526, 3640, 7503, 7533];
main_exp = [147, 135, 7, 12, 57, 1, 18, 6];
assist_exp = [99, 101, 13, 46, 106, 32, 59, 24];
available_slots = array3d(1..NumReferees, 1..3, 1..2,[
  0,1440, 0,0, 0,0,
  0,1440, 0,0, 0,0,
  600,780, 900,1140, 0,0,
  0,1440, 0,0, 0,0,
  0,1440, 0,0, 0,0,
  600,900, 1140,1380, 0,0,
  0,720, 0,0, 0,0,
  600,1440, 0,0, 0,0,
]);